20	5	2	0
0	1	21	13	4	14	9	20	6	1	8	11	3	16	15	18	2	17	21	7	5	19	12	10	[0 0 0 0 0]	[0 0 0 0 0]	[0 0 0 0 0]	[0 0 0 0 0]	[0 0 0 0 0]	[0 0 0 0 0]	[0 0 0 0 0]	[0 0 0 0 0]	[0 0 0 0 0]	[0 0 0 0 0]	[0 0 0 0 0]	[0 0 0 0 0]	[0 0 0 0 0]	[0 0 0 0 0]	[0 0 0 0 0]	[0]	[0 0 0 0 0]	[0 0 0 0 0]	[0 0 0 0 0]	[0 0 0 0 0]	[0 0 0 0 0]
1	5	3	12	15	21	[5 2 6 0 0 1 3 4 -1 0 0 2 0 0 0 10 -1 8 5 1 10 -5 5 -6 22]	[1 6 0 0 6 3 4 1 5 6 1 0 2 0 3 -2 12 10 15 -4 -5 8 2 15 23]	[2 4 1 5 8]
2	5	2	12	21	[15 0 15 -5 10 6 3 4 -1 1 14 19 5 18 20 5 2 10 5 4 8 1 1 8 9]	[6 2 7 5 3]
3	5	3	21	18	20	[6 6 9 10 7]	[8 11 12 16 5 13 1 9 7 9 3 15 20 23 14 19 7 -8 0 -1 5 0 6 3 11]	[13 12 -4 4 12 12 16 5 5 14 21 6 17 16 23 -3 28 30 18 9 -6 18 -1 -1 1]
4	5	2	21	10	[10 1 10 8 4]	[3 3 17 30 15 3 0 0 3 0 -1 18 0 27 9 14 9 22 2 1 5 12 3 12 6]
5	5	5	21	20	10	11	9	[7 1 10 8 7]	[0 5 3 9 0 2 0 0 0 1 -8 13 -7 19 15 10 -3 15 8 -1 -6 4 14 16 18]	[0 6 8 4 2 1 0 0 3 1 20 2 16 -5 16 -1 -5 0 15 10 1 15 5 -6 20]	[16 -1 17 11 6 1 1 0 0 0 27 -8 5 13 0 3 7 5 18 20 -3 12 19 19 16]	[9 -6 6 0 6 0 3 1 0 1 23 -4 16 26 -7 1 0 19 17 8 2 0 -1 6 21]
6	5	4	20	21	17	11	[0 2 0 -2 -1 -8 -6 19 1 14 26 28 21 -3 25 13 -3 15 -2 0 -1 6 -1 0 8]	[3 10 10 5 3]	[9 6 2 5 7 28 -1 20 1 10 17 -6 6 24 24 11 5 -1 7 12 4 5 -2 5 8]	[7 6 5 6 9 20 1 4 28 -8 23 10 13 0 16 3 5 7 -2 4 3 0 -2 6 2]
7	5	3	14	15	21	[12 0 5 18 12 3 0 0 -1 4 0 0 0 1 2 4 21 -5 2 -8 11 11 5 7 12]	[0 1 -2 3 13 5 6 3 6 0 2 0 1 0 3 24 2 9 11 30 -3 9 12 3 11]	[7 2 1 10 4]
8	5	4	14	21	20	9	[7 -2 -3 12 18 10 3 0 -1 5 0 6 15 -2 7 9 -2 20 -2 10 16 12 6 0 -2]	[6 4 5 8 6]	[14 -4 -1 -4 -3 -2 1 2 10 1 12 11 4 3 -3 4 20 23 12 -2 9 12 0 1 1]	[-2 4 -3 10 13 11 3 -3 1 2 4 15 2 0 2 2 10 -5 -4 15 10 9 16 11 13]
9	5	3	21	16	18	[8 8 2 9 3]	[1 15 5 -2 0 6 16 22 16 0 0 0 5 4 4 21 -8 0 4 13 4 6 -1 5 -1]	[5 5 3 1 -5 -1 1 24 -3 12 3 -1 3 3 4 1 7 -3 -7 18 0 -2 -2 7 3]
10	5	3	21	13	5	[2 9 4 9 10]	[6 0 4 5 2 20 1 -6 11 21 11 0 12 12 -2 4 -7 0 10 -6 -9 30 28 13 3]	[-10 -7 -23 -12 -23 -23 -25 -6 -4 -13 -25 -21 -14 -6 -7 -18 -17 -14 -13 -9 -25 -13 -26 -20 -7]
11	5	2	21	19	[4 2 2 7 10]	[-2 8 -2 6 1 0 0 1 0 5 1 1 -1 6 0 -6 12 -2 17 21 3 23 10 12 -4]
12	5	2	8	21	[6 1 0 6 -1 1 1 1 3 1 0 17 2 15 15 -1 28 3 3 30 3 24 11 18 -2]	[2 1 6 10 9]
13	5	3	10	5	21	[-28 -11 -38 -12 -9 -40 -27 -42 -30 -43 -13 -44 -29 -23 -40 -34 -15 -11 -26 -10 -33 -15 -31 -22 -10]	[-26 -4 -12 -5 -12 -11 -14 -20 -27 -7 -39 -1 -21 -35 -40 -10 -18 -40 -10 -40 -26 -18 -25 -21 -28]	[5 10 8 7 10]
14	5	1	21	[9 5 10 4 9]
15	5	1	21	[4 8 1 10 9]
16	5	1	21	[6 6 4 3 6]
17	5	1	21	[3 2 10 10 2]
18	5	1	21	[4 1 8 9 4]
19	5	1	21	[6 7 2 7 6]
20	5	1	21	[6 5 1 3 1]
21	1	0
0	1	0	0	0	0	0	0	0	0
1	1	2	1	3	3	1	5	1	3
	2	4	1	3	3	1	5	1	3
	3	1	1	3	3	1	5	1	3
	4	5	1	3	3	1	5	1	3
	5	8	1	3	3	1	5	1	3
2	1	6	5	1	1	5	4	3	5
	2	2	5	1	1	5	4	3	5
	3	7	5	1	1	5	4	3	5
	4	5	5	1	1	5	4	3	5
	5	3	5	1	1	5	4	3	5
3	1	6	5	5	1	5	2	1	5
	2	6	5	5	1	5	2	1	5
	3	9	5	5	1	5	2	1	5
	4	10	5	5	1	5	2	1	5
	5	7	5	5	1	5	2	1	5
4	1	10	1	5	3	5	2	5	2
	2	1	1	5	3	5	2	5	2
	3	10	1	5	3	5	2	5	2
	4	8	1	5	3	5	2	5	2
	5	4	1	5	3	5	2	5	2
5	1	7	1	2	4	2	5	4	4
	2	1	1	2	4	2	5	4	4
	3	10	1	2	4	2	5	4	4
	4	8	1	2	4	2	5	4	4
	5	7	1	2	4	2	5	4	4
6	1	3	4	5	2	2	3	2	3
	2	10	4	5	2	2	3	2	3
	3	10	4	5	2	2	3	2	3
	4	5	4	5	2	2	3	2	3
	5	3	4	5	2	2	3	2	3
7	1	7	1	1	4	3	5	5	3
	2	2	1	1	4	3	5	5	3
	3	1	1	1	4	3	5	5	3
	4	10	1	1	4	3	5	5	3
	5	4	1	1	4	3	5	5	3
8	1	6	5	1	3	2	4	5	4
	2	4	5	1	3	2	4	5	4
	3	5	5	1	3	2	4	5	4
	4	8	5	1	3	2	4	5	4
	5	6	5	1	3	2	4	5	4
9	1	8	3	3	2	5	3	2	5
	2	8	3	3	2	5	3	2	5
	3	2	3	3	2	5	3	2	5
	4	9	3	3	2	5	3	2	5
	5	3	3	3	2	5	3	2	5
10	1	2	4	3	4	2	5	1	3
	2	9	4	3	4	2	5	1	3
	3	4	4	3	4	2	5	1	3
	4	9	4	3	4	2	5	1	3
	5	10	4	3	4	2	5	1	3
11	1	4	5	1	4	4	1	5	3
	2	2	5	1	4	4	1	5	3
	3	2	5	1	4	4	1	5	3
	4	7	5	1	4	4	1	5	3
	5	10	5	1	4	4	1	5	3
12	1	2	3	4	2	1	5	5	5
	2	1	3	4	2	1	5	5	5
	3	6	3	4	2	1	5	5	5
	4	10	3	4	2	1	5	5	5
	5	9	3	4	2	1	5	5	5
13	1	5	1	2	4	3	4	1	4
	2	10	1	2	4	3	4	1	4
	3	8	1	2	4	3	4	1	4
	4	7	1	2	4	3	4	1	4
	5	10	1	2	4	3	4	1	4
14	1	9	3	4	1	4	1	1	1
	2	5	3	4	1	4	1	1	1
	3	10	3	4	1	4	1	1	1
	4	4	3	4	1	4	1	1	1
	5	9	3	4	1	4	1	1	1
15	1	4	2	5	4	3	3	5	5
	2	8	2	5	4	3	3	5	5
	3	1	2	5	4	3	3	5	5
	4	10	2	5	4	3	3	5	5
	5	9	2	5	4	3	3	5	5
16	1	6	3	5	4	3	5	1	3
	2	6	3	5	4	3	5	1	3
	3	4	3	5	4	3	5	1	3
	4	3	3	5	4	3	5	1	3
	5	6	3	5	4	3	5	1	3
17	1	3	3	1	3	4	4	4	4
	2	2	3	1	3	4	4	4	4
	3	10	3	1	3	4	4	4	4
	4	10	3	1	3	4	4	4	4
	5	2	3	1	3	4	4	4	4
18	1	4	5	3	5	1	5	4	5
	2	1	5	3	5	1	5	4	5
	3	8	5	3	5	1	5	4	5
	4	9	5	3	5	1	5	4	5
	5	4	5	3	5	1	5	4	5
19	1	6	5	3	5	3	2	5	1
	2	7	5	3	5	3	2	5	1
	3	2	5	3	5	3	2	5	1
	4	7	5	3	5	3	2	5	1
	5	6	5	3	5	3	2	5	1
20	1	6	5	4	2	2	1	2	2
	2	5	5	4	2	2	1	2	2
	3	1	5	4	2	2	1	2	2
	4	3	5	4	2	2	1	2	2
	5	1	5	4	2	2	1	2	2
21	1	0	0	0	0	0	0	0	0
35	33	33	33	37	62	132
